c CNF generator v0.9
p cnf 50 50
17 24 -14 0
-30 -39 11 0
-17 22 -16 0
15 -50 24 0
16 -43 40 0
-43 22 45 0
32 24 44 0
20 -25 25 0
35 31 -39 0
5 5 -19 0
23 -6 -8 0
16 4 -42 0
1 -44 3 0
-42 48 22 0
-49 -27 -10 0
-42 -33 -22 0
-36 -43 -50 0
-6 25 41 0
-32 -30 12 0
-11 37 46 0
-16 -3 25 0
18 -14 -35 0
40 8 16 0
14 28 -7 0
22 -35 47 0
17 -33 -27 0
-43 -24 -27 0
24 -13 -34 0
44 -39 -39 0
24 6 9 0
11 -15 -39 0
13 37 9 0
10 -15 -32 0
16 -24 5 0
-46 39 -17 0
-16 -10 4 0
-37 40 -48 0
-12 13 36 0
2 -33 1 0
-18 -37 -37 0
-44 17 -8 0
-7 18 21 0
-11 -39 13 0
-8 13 -33 0
-7 -27 -41 0
5 -5 -47 0
-3 14 -32 0
17 -8 15 0
2 11 -34 0
-31 4 -18 0
